objective value:                    -4.83866110881538
h-1,12                                           0.01 	(obj:0)
h-1,15                                           0.01 	(obj:0)
h-1,33                                           0.01 	(obj:0)
h-1,34                                           0.01 	(obj:0)
h-1,35                                           0.01 	(obj:0)
h-1,36                                           0.01 	(obj:0)
h-1,37                                           0.01 	(obj:0)
h-1,38                                           0.01 	(obj:0)
h-1,39                                           0.01 	(obj:0)
h-1,40                                           0.01 	(obj:0)
h-1,41                                           0.01 	(obj:0)
h-1,47                                           0.01 	(obj:0)
h-1,48                                           0.01 	(obj:0)
h-1,49                                           0.01 	(obj:0)
h-1,50                                           0.01 	(obj:0)
h-1,51                                           0.01 	(obj:0)
h-1,58                                           0.01 	(obj:0)
h-1,59                                           0.01 	(obj:0)
h-1,60                                           0.01 	(obj:0)
h-1,61                                           0.01 	(obj:0)
h-1,62                                           0.01 	(obj:0)
h-1,63                                           0.01 	(obj:0)
h-1,64                                           0.01 	(obj:0)
h-1,65                                           0.01 	(obj:0)
h-1,66                                           0.01 	(obj:0)
h-1,67                                           0.01 	(obj:0)
h-1,68                                           0.01 	(obj:0)
h-1,69                                           0.01 	(obj:0)
h-1,73                                           0.01 	(obj:0)
h-1,74                                           0.01 	(obj:0)
h-1,75                                           0.01 	(obj:0)
h-1,76                                           0.01 	(obj:0)
h-1,77                                           0.01 	(obj:0)
h-1,78                                           0.01 	(obj:0)
h-1,87                                           0.01 	(obj:0)
h-1,88                                           0.01 	(obj:0)
h-1,89                                           0.01 	(obj:0)
h-1,90                                           0.01 	(obj:0)
h-1,92                                           0.01 	(obj:0)
h-1,93                                           0.01 	(obj:0)
h-1,94                                           0.01 	(obj:0)
h-1,95                                           0.01 	(obj:0)
h-1,96                                           0.01 	(obj:0)
h-1,97                                           0.01 	(obj:0)
h-1,98                                           0.01 	(obj:0)
h-1,99                                           0.01 	(obj:0)
h-1,100                                          0.01 	(obj:0)
h-1,101                                          0.01 	(obj:0)
h-1,102                                          0.01 	(obj:0)
h-1,103                                          0.01 	(obj:0)
h-1,104                                          0.01 	(obj:0)
h-1,105                                          0.01 	(obj:0)
h-1,106                                          0.01 	(obj:0)
h-1,107                                          0.01 	(obj:0)
h-1,113                                          0.01 	(obj:0)
h-1,117                                          0.01 	(obj:0)
h-1,121                                          0.01 	(obj:0)
h-1,127                                          0.01 	(obj:0)
h-1,128                             0.159019613862038 	(obj:0)
h-1,129                                             1 	(obj:0)
h-1,130                             0.437450984716415 	(obj:0)
h-1,131                                          0.01 	(obj:0)
h-1,133                                          0.01 	(obj:0)
h-1,134                                          0.01 	(obj:0)
h-1,135                                          0.01 	(obj:0)
h-1,136                                          0.01 	(obj:0)
h-1,137                                          0.01 	(obj:0)
h-1,138                                          0.01 	(obj:0)
h-1,139                                          0.01 	(obj:0)
h-1,148                                          0.01 	(obj:0)
h-1,150                                          0.01 	(obj:0)
h-1,156                             0.351176480054855 	(obj:0)
h-1,157                             0.998235294818878 	(obj:0)
h-1,158                             0.331568638086319 	(obj:0)
h-1,159                                          0.01 	(obj:0)
h-1,160                                          0.01 	(obj:0)
h-1,161                                          0.01 	(obj:0)
h-1,162                                          0.01 	(obj:0)
h-1,163                                          0.01 	(obj:0)
h-1,164                                          0.01 	(obj:0)
h-1,165                                          0.01 	(obj:0)
h-1,166                                          0.01 	(obj:0)
h-1,167                                          0.01 	(obj:0)
h-1,169                                          0.01 	(obj:0)
h-1,184                             0.519411792755127 	(obj:0)
h-1,185                             0.935098042488098 	(obj:0)
h-1,187                                          0.01 	(obj:0)
h-1,190                                          0.01 	(obj:0)
h-1,191                                          0.01 	(obj:0)
h-1,192                                          0.01 	(obj:0)
h-1,193                                          0.01 	(obj:0)
h-1,194                                          0.01 	(obj:0)
h-1,195                                          0.01 	(obj:0)
h-1,197                                          0.01 	(obj:0)
h-1,203                                          0.01 	(obj:0)
h-1,204                                          0.01 	(obj:0)
h-1,205                                          0.01 	(obj:0)
h-1,206                                          0.01 	(obj:0)
h-1,210                                          0.01 	(obj:0)
h-1,211                             0.186470592617989 	(obj:0)
h-1,212                              0.96686274766922 	(obj:0)
h-1,213                             0.598235318660736 	(obj:0)
h-1,219                                          0.01 	(obj:0)
h-1,220                                          0.01 	(obj:0)
h-1,221                                          0.01 	(obj:0)
h-1,222                                          0.01 	(obj:0)
h-1,223                                          0.01 	(obj:0)
h-1,224                                          0.01 	(obj:0)
h-1,232                                          0.01 	(obj:0)
h-1,234                                          0.01 	(obj:0)
h-1,235                                          0.01 	(obj:0)
h-1,239                             0.339411774873734 	(obj:0)
h-1,240                                             1 	(obj:0)
h-1,241                              0.23705882370472 	(obj:0)
h-1,247                                          0.01 	(obj:0)
h-1,248                                          0.01 	(obj:0)
h-1,249                                          0.01 	(obj:0)
h-1,250                                          0.01 	(obj:0)
h-1,251                                          0.01 	(obj:0)
h-1,252                                          0.01 	(obj:0)
h-1,260                                          0.01 	(obj:0)
h-1,261                                          0.01 	(obj:0)
h-1,262                                          0.01 	(obj:0)
h-1,263                                          0.01 	(obj:0)
h-1,264                                          0.01 	(obj:0)
h-1,267                             0.782156875133514 	(obj:0)
h-1,268                             0.864509811401367 	(obj:0)
h-1,269                            0.0331372560560703 	(obj:0)
h-1,276                                          0.01 	(obj:0)
h-1,277                                          0.01 	(obj:0)
h-1,278                                          0.01 	(obj:0)
h-1,279                                          0.01 	(obj:0)
h-1,287                                          0.01 	(obj:0)
h-1,288                                          0.01 	(obj:0)
h-1,289                                          0.01 	(obj:0)
h-1,290                                          0.01 	(obj:0)
h-1,291                                          0.01 	(obj:0)
h-1,292                                          0.01 	(obj:0)
h-1,294                             0.115490203499794 	(obj:0)
h-1,295                             0.986078431606293 	(obj:0)
h-1,296                             0.837058832645416 	(obj:0)
h-1,304                                          0.01 	(obj:0)
h-1,305                                          0.01 	(obj:0)
h-1,306                                          0.01 	(obj:0)
h-1,307                                          0.01 	(obj:0)
h-1,308                                          0.01 	(obj:0)
h-1,314                                          0.01 	(obj:0)
h-1,315                                          0.01 	(obj:0)
h-1,316                                          0.01 	(obj:0)
h-1,317                                          0.01 	(obj:0)
h-1,318                                          0.01 	(obj:0)
h-1,319                                          0.01 	(obj:0)
h-1,320                                          0.01 	(obj:0)
h-1,321                                          0.01 	(obj:0)
h-1,322                             0.362549027204514 	(obj:0)
h-1,323                             0.986078431606293 	(obj:0)
h-1,324                             0.754705896377563 	(obj:0)
h-1,328                                          0.01 	(obj:0)
h-1,329                                          0.01 	(obj:0)
h-1,330                                          0.01 	(obj:0)
h-1,331                                          0.01 	(obj:0)
h-1,332                                          0.01 	(obj:0)
h-1,333                                          0.01 	(obj:0)
h-1,334                                          0.01 	(obj:0)
h-1,336                                          0.01 	(obj:0)
h-1,340                                          0.01 	(obj:0)
h-1,341                                          0.01 	(obj:0)
h-1,342                                          0.01 	(obj:0)
h-1,343                                          0.01 	(obj:0)
h-1,344                                          0.01 	(obj:0)
h-1,345                                          0.01 	(obj:0)
h-1,346                                          0.01 	(obj:0)
h-1,347                                          0.01 	(obj:0)
h-1,348                                          0.01 	(obj:0)
h-1,349                                          0.01 	(obj:0)
h-1,350                             0.539019634723663 	(obj:0)
h-1,351                                             1 	(obj:0)
h-1,352                             0.311960796117783 	(obj:0)
h-1,353                                          0.01 	(obj:0)
h-1,354                                          0.01 	(obj:0)
h-1,355                                          0.01 	(obj:0)
h-1,356                                          0.01 	(obj:0)
h-1,358                                          0.01 	(obj:0)
h-1,360                                          0.01 	(obj:0)
h-1,363                                          0.01 	(obj:0)
h-1,364                                          0.01 	(obj:0)
h-1,365                                          0.01 	(obj:0)
h-1,368                                          0.01 	(obj:0)
h-1,369                                          0.01 	(obj:0)
h-1,370                                          0.01 	(obj:0)
h-1,371                                          0.01 	(obj:0)
h-1,372                                          0.01 	(obj:0)
h-1,373                                          0.01 	(obj:0)
h-1,374                                          0.01 	(obj:0)
h-1,375                                          0.01 	(obj:0)
h-1,376                                          0.01 	(obj:0)
h-1,377                             0.213529413342476 	(obj:0)
h-1,378                             0.919411768913269 	(obj:0)
h-1,379                             0.793921580314636 	(obj:0)
h-1,380                            0.0213725508749485 	(obj:0)
h-1,381                                          0.01 	(obj:0)
h-1,382                                          0.01 	(obj:0)
h-1,383                                          0.01 	(obj:0)
h-1,384                                          0.01 	(obj:0)
h-1,385                                          0.01 	(obj:0)
h-1,386                                          0.01 	(obj:0)
h-1,387                                          0.01 	(obj:0)
h-1,388                                          0.01 	(obj:0)
h-1,391                                          0.01 	(obj:0)
h-1,392                                          0.01 	(obj:0)
h-1,393                                          0.01 	(obj:0)
h-1,396                                          0.01 	(obj:0)
h-1,397                                          0.01 	(obj:0)
h-1,398                                          0.01 	(obj:0)
h-1,399                                          0.01 	(obj:0)
h-1,400                                          0.01 	(obj:0)
h-1,401                                          0.01 	(obj:0)
h-1,402                                          0.01 	(obj:0)
h-1,403                                          0.01 	(obj:0)
h-1,404                                          0.01 	(obj:0)
h-1,405                             0.476274510622025 	(obj:0)
h-1,406                                          0.99 	(obj:0)
h-1,407                             0.657058844566345 	(obj:0)
h-1,412                                          0.01 	(obj:0)
h-1,413                                          0.01 	(obj:0)
h-1,414                                          0.01 	(obj:0)
h-1,415                                          0.01 	(obj:0)
h-1,416                                          0.01 	(obj:0)
h-1,421                                          0.01 	(obj:0)
h-1,424                                          0.01 	(obj:0)
h-1,427                                          0.01 	(obj:0)
h-1,428                                          0.01 	(obj:0)
h-1,429                                          0.01 	(obj:0)
h-1,430                                          0.01 	(obj:0)
h-1,431                                          0.01 	(obj:0)
h-1,432                                          0.01 	(obj:0)
h-1,433                             0.660588254928589 	(obj:0)
h-1,434                             0.986078431606293 	(obj:0)
h-1,435                             0.327647069692612 	(obj:0)
h-1,436                                          0.01 	(obj:0)
h-1,438                                          0.01 	(obj:0)
h-1,440                                          0.01 	(obj:0)
h-1,442                                          0.01 	(obj:0)
h-1,443                                          0.01 	(obj:0)
h-1,444                                          0.01 	(obj:0)
h-1,445                                          0.01 	(obj:0)
h-1,449                                          0.01 	(obj:0)
h-1,450                                          0.01 	(obj:0)
h-1,451                                          0.01 	(obj:0)
h-1,452                                          0.01 	(obj:0)
h-1,455                                          0.01 	(obj:0)
h-1,456                                          0.01 	(obj:0)
h-1,457                                          0.01 	(obj:0)
h-1,458                                          0.01 	(obj:0)
h-1,459                                          0.01 	(obj:0)
h-1,460                             0.104117648899555 	(obj:0)
h-1,461                             0.899803926944733 	(obj:0)
h-1,462                             0.833137264251709 	(obj:0)
h-1,464                                          0.01 	(obj:0)
h-1,466                                          0.01 	(obj:0)
h-1,470                                          0.01 	(obj:0)
h-1,471                                          0.01 	(obj:0)
h-1,472                                          0.01 	(obj:0)
h-1,477                                          0.01 	(obj:0)
h-1,479                                          0.01 	(obj:0)
h-1,484                                          0.01 	(obj:0)
h-1,485                                          0.01 	(obj:0)
h-1,486                                          0.01 	(obj:0)
h-1,487                                          0.01 	(obj:0)
h-1,488                             0.480588237047195 	(obj:0)
h-1,489                             0.986078431606293 	(obj:0)
h-1,490                             0.613529434204102 	(obj:0)
h-1,492                                          0.01 	(obj:0)
h-1,493                                          0.01 	(obj:0)
h-1,494                                          0.01 	(obj:0)
h-1,496                                          0.01 	(obj:0)
h-1,498                                          0.01 	(obj:0)
h-1,499                                          0.01 	(obj:0)
h-1,500                                          0.01 	(obj:0)
h-1,504                                          0.01 	(obj:0)
h-1,505                                          0.01 	(obj:0)
h-1,506                                          0.01 	(obj:0)
h-1,511                                          0.01 	(obj:0)
h-1,512                                          0.01 	(obj:0)
h-1,513                                          0.01 	(obj:0)
h-1,514                                          0.01 	(obj:0)
h-1,515                                          0.01 	(obj:0)
h-1,516                             0.582156887054443 	(obj:0)
h-1,517                             0.986078431606293 	(obj:0)
h-1,518                             0.546862771511078 	(obj:0)
h-1,519                                          0.01 	(obj:0)
h-1,520                                          0.01 	(obj:0)
h-1,525                                          0.01 	(obj:0)
h-1,526                                          0.01 	(obj:0)
h-1,527                                          0.01 	(obj:0)
h-1,534                                          0.01 	(obj:0)
h-1,538                                          0.01 	(obj:0)
h-1,539                                          0.01 	(obj:0)
h-1,540                                          0.01 	(obj:0)
h-1,541                                          0.01 	(obj:0)
h-1,542                                          0.01 	(obj:0)
h-1,543                                          0.01 	(obj:0)
h-1,544                             0.904117653369904 	(obj:0)
h-1,545                             0.986078431606293 	(obj:0)
h-1,546                             0.248823543787003 	(obj:0)
h-1,547                                          0.01 	(obj:0)
h-1,548                                          0.01 	(obj:0)
h-1,553                                          0.01 	(obj:0)
h-1,554                                          0.01 	(obj:0)
h-1,555                                          0.01 	(obj:0)
h-1,556                                          0.01 	(obj:0)
h-1,561                                          0.01 	(obj:0)
h-1,562                                          0.01 	(obj:0)
h-1,565                                          0.01 	(obj:0)
h-1,569                                          0.01 	(obj:0)
h-1,571                             0.249215686917305 	(obj:0)
h-1,572                             0.994313726425171 	(obj:0)
h-1,573                                             1 	(obj:0)
h-1,574                             0.248823543787003 	(obj:0)
h-1,575                                          0.01 	(obj:0)
h-1,576                                          0.01 	(obj:0)
h-1,577                                          0.01 	(obj:0)
h-1,578                                          0.01 	(obj:0)
h-1,579                                          0.01 	(obj:0)
h-1,581                                          0.01 	(obj:0)
h-1,582                                          0.01 	(obj:0)
h-1,583                                          0.01 	(obj:0)
h-1,587                                          0.01 	(obj:0)
h-1,589                                          0.01 	(obj:0)
h-1,590                                          0.01 	(obj:0)
h-1,594                                          0.01 	(obj:0)
h-1,595                                          0.01 	(obj:0)
h-1,596                                          0.01 	(obj:0)
h-1,598                                          0.01 	(obj:0)
h-1,599                             0.562941203117371 	(obj:0)
h-1,600                                             1 	(obj:0)
h-1,601                             0.813921580314636 	(obj:0)
h-1,602                            0.0217647061124444 	(obj:0)
h-1,603                                          0.01 	(obj:0)
h-1,604                                          0.01 	(obj:0)
h-1,605                                          0.01 	(obj:0)
h-1,606                                          0.01 	(obj:0)
h-1,608                                          0.01 	(obj:0)
h-1,609                                          0.01 	(obj:0)
h-1,610                                          0.01 	(obj:0)
h-1,611                                          0.01 	(obj:0)
h-1,616                                          0.01 	(obj:0)
h-1,617                                          0.01 	(obj:0)
h-1,618                                          0.01 	(obj:0)
h-1,619                                          0.01 	(obj:0)
h-1,626                            0.0292156876623631 	(obj:0)
h-1,627                             0.853137264251709 	(obj:0)
h-1,628                                             1 	(obj:0)
h-1,629                             0.484509805440903 	(obj:0)
h-1,631                                          0.01 	(obj:0)
h-1,632                                          0.01 	(obj:0)
h-1,633                                          0.01 	(obj:0)
h-1,634                                          0.01 	(obj:0)
h-1,635                                          0.01 	(obj:0)
h-1,636                                          0.01 	(obj:0)
h-1,637                                          0.01 	(obj:0)
h-1,638                                          0.01 	(obj:0)
h-1,643                                          0.01 	(obj:0)
h-1,646                                          0.01 	(obj:0)
h-1,647                                          0.01 	(obj:0)
h-1,654                           0.00960784383118152 	(obj:0)
h-1,655                             0.766470601558685 	(obj:0)
h-1,656                             0.680196096897125 	(obj:0)
h-1,657                            0.0492156876623631 	(obj:0)
h-1,658                                          0.01 	(obj:0)
h-1,659                                          0.01 	(obj:0)
h-1,660                                          0.01 	(obj:0)
h-1,661                                          0.01 	(obj:0)
h-1,662                                          0.01 	(obj:0)
h-1,663                                          0.01 	(obj:0)
h-1,664                                          0.01 	(obj:0)
h-1,665                                          0.01 	(obj:0)
h-1,674                                          0.01 	(obj:0)
h-1,675                                          0.01 	(obj:0)
h-1,676                                          0.01 	(obj:0)
h-1,681                                          0.01 	(obj:0)
h-1,682                                          0.01 	(obj:0)
h-1,683                                          0.01 	(obj:0)
h-1,684                                          0.01 	(obj:0)
h-1,685                                          0.01 	(obj:0)
h-1,686                                          0.01 	(obj:0)
h-1,687                                          0.01 	(obj:0)
h-1,688                                          0.01 	(obj:0)
h-1,689                                          0.01 	(obj:0)
h-1,690                                          0.01 	(obj:0)
h-1,691                                          0.01 	(obj:0)
h-1,692                                          0.01 	(obj:0)
h-1,693                                          0.01 	(obj:0)
h-1,694                                          0.01 	(obj:0)
h-1,698                                          0.01 	(obj:0)
h-1,702                                          0.01 	(obj:0)
h-1,703                                          0.01 	(obj:0)
h-1,704                                          0.01 	(obj:0)
h-1,705                                          0.01 	(obj:0)
h-1,706                                          0.01 	(obj:0)
h-1,707                                          0.01 	(obj:0)
h-1,708                                          0.01 	(obj:0)
h-1,709                                          0.01 	(obj:0)
h-1,710                                          0.01 	(obj:0)
h-1,711                                          0.01 	(obj:0)
h-1,712                                          0.01 	(obj:0)
h-1,713                                          0.01 	(obj:0)
h-1,714                                          0.01 	(obj:0)
h-1,715                                          0.01 	(obj:0)
h-1,716                                          0.01 	(obj:0)
h-1,717                                          0.01 	(obj:0)
h-1,718                                          0.01 	(obj:0)
h-1,719                                          0.01 	(obj:0)
h-1,720                                          0.01 	(obj:0)
h-1,721                                          0.01 	(obj:0)
h-1,722                                          0.01 	(obj:0)
h-1,723                                          0.01 	(obj:0)
h-1,724                                          0.01 	(obj:0)
h-1,725                                          0.01 	(obj:0)
h-1,726                                          0.01 	(obj:0)
h-1,731                                          0.01 	(obj:0)
h-1,732                                          0.01 	(obj:0)
h-1,733                                          0.01 	(obj:0)
h-1,734                                          0.01 	(obj:0)
h-1,735                                          0.01 	(obj:0)
h-1,737                                          0.01 	(obj:0)
h-1,738                                          0.01 	(obj:0)
h-1,739                                          0.01 	(obj:0)
h-1,740                                          0.01 	(obj:0)
h-1,741                                          0.01 	(obj:0)
h-1,742                                          0.01 	(obj:0)
h-1,743                                          0.01 	(obj:0)
h-1,744                                          0.01 	(obj:0)
h-1,745                                          0.01 	(obj:0)
h-1,746                                          0.01 	(obj:0)
h-1,747                                          0.01 	(obj:0)
h-1,748                                          0.01 	(obj:0)
h-1,749                                          0.01 	(obj:0)
h-1,750                                          0.01 	(obj:0)
h-1,751                                          0.01 	(obj:0)
h-1,752                                          0.01 	(obj:0)
h-1,760                                          0.01 	(obj:0)
h-1,765                                          0.01 	(obj:0)
h-1,766                                          0.01 	(obj:0)
h-1,777                                          0.01 	(obj:0)
z0,0                                 4.43094609970008 	(obj:0)
a0,0                                 4.43094609970008 	(obj:0)
z0,1                                0.286028165309787 	(obj:0)
a0,1                                0.286028165309787 	(obj:0)
z0,2                                 1.41077900490946 	(obj:0)
a0,2                                 1.41077900490946 	(obj:0)
z0,3                               -0.211055225318761 	(obj:0)
z0,4                                0.545872830455017 	(obj:0)
a0,4                                0.545872830455017 	(obj:0)
z1,0                                 3.17409947271971 	(obj:0)
a1,0                                 3.17409947271971 	(obj:0)
z1,1                              -0.0602541232310294 	(obj:0)
z1,2                                -3.22120961115926 	(obj:0)
z1,3                                  3.6221329288905 	(obj:0)
a1,3                                  3.6221329288905 	(obj:0)
z1,4                                 2.03194007017239 	(obj:0)
a1,4                                 2.03194007017239 	(obj:0)
z2,0                                 1.06785786144185 	(obj:0)
a2,0                                 1.06785786144185 	(obj:0)
z2,1                                 2.27112674033396 	(obj:0)
a2,1                                 2.27112674033396 	(obj:0)
z2,2                                 5.75001403712281 	(obj:0)
a2,2                                 5.75001403712281 	(obj:0)
z2,3                                 5.06162915880645 	(obj:0)
a2,3                                 5.06162915880645 	(obj:0)
z2,4                                0.159787354891985 	(obj:0)
a2,4                                0.159787354891985 	(obj:0)
z3,0                                -4.24643679768035 	(obj:0)
z3,1                                 4.83866110881538 	(obj:0)
a3,1                                 4.83866110881538 	(obj:-1)
z3,2                                0.235450655555985 	(obj:0)
a3,2                                0.235450655555985 	(obj:0)
z3,3                               -0.427208931308061 	(obj:0)
z3,4                                -4.10215986564684 	(obj:0)
z3,5                               0.0611491666162804 	(obj:0)
a3,5                               0.0611491666162804 	(obj:0)
z3,7                                -5.63549793931911 	(obj:0)
z3,8                                0.741781677870048 	(obj:0)
a3,8                                0.741781677870048 	(obj:0)
z3,9                                -3.74867419475271 	(obj:0)
